Instance: E076-08s.dat
Class:  2
   75 --- number of customers (no depot)
   15 --- number of vehicles
  112 --- number of items
Capacity - height - width of vehicles
   180     40     20
Node - x - y - demand
    0    40.0    40.0     0.0
    1    22.0    22.0    18.0
    2    36.0    26.0    26.0
    3    21.0    45.0    11.0
    4    45.0    35.0    30.0
    5    55.0    20.0    21.0
    6    33.0    34.0    19.0
    7    50.0    50.0    15.0
    8    55.0    45.0    16.0
    9    26.0    59.0    29.0
   10    40.0    66.0    26.0
   11    55.0    65.0    37.0
   12    35.0    51.0    16.0
   13    62.0    35.0    12.0
   14    62.0    57.0    31.0
   15    62.0    24.0     8.0
   16    21.0    36.0    19.0
   17    33.0    44.0    20.0
   18     9.0    56.0    13.0
   19    62.0    48.0    15.0
   20    66.0    14.0    22.0
   21    44.0    13.0    28.0
   22    26.0    13.0    12.0
   23    11.0    28.0     6.0
   24     7.0    43.0    27.0
   25    17.0    64.0    14.0
   26    41.0    46.0    18.0
   27    55.0    34.0    17.0
   28    35.0    16.0    29.0
   29    52.0    26.0    13.0
   30    43.0    26.0    22.0
   31    31.0    76.0    25.0
   32    22.0    53.0    28.0
   33    26.0    29.0    27.0
   34    50.0    40.0    19.0
   35    55.0    50.0    10.0
   36    54.0    10.0    12.0
   37    60.0    15.0    14.0
   38    47.0    66.0    24.0
   39    30.0    60.0    16.0
   40    30.0    50.0    33.0
   41    12.0    17.0    15.0
   42    15.0    14.0    11.0
   43    16.0    19.0    18.0
   44    21.0    48.0    17.0
   45    50.0    30.0    21.0
   46    51.0    42.0    27.0
   47    50.0    15.0    19.0
   48    48.0    21.0    20.0
   49    12.0    38.0     5.0
   50    15.0    56.0    22.0
   51    29.0    39.0    12.0
   52    54.0    38.0    19.0
   53    55.0    57.0    22.0
   54    67.0    41.0    16.0
   55    10.0    70.0     7.0
   56     6.0    25.0    26.0
   57    65.0    27.0    14.0
   58    40.0    60.0    21.0
   59    70.0    64.0    24.0
   60    64.0     4.0    13.0
   61    36.0     6.0    15.0
   62    30.0    20.0    18.0
   63    20.0    30.0    11.0
   64    15.0     5.0    28.0
   65    50.0    70.0     9.0
   66    57.0    72.0    37.0
   67    45.0    42.0    30.0
   68    38.0    33.0    10.0
   69    50.0     4.0     8.0
   70    66.0     8.0    11.0
   71    59.0     5.0     3.0
   72    35.0    60.0     1.0
   73    27.0    24.0     6.0
   74    40.0    20.0    10.0
   75    40.0    37.0    20.0
Node - number of items - h - w for each item
    0   0
    1   1    5   11
    2   1    7   11
    3   2    6   17   25    3
    4   2    7   16   26    3
    5   2    7   15   19    9
    6   1    7   17
    7   2    7   18   19    3
    8   2    7   17   27    2
    9   2   34    3   32    3
   10   1    8    9
   11   1   20    5
   12   1   16    9
   13   1    4   10
   14   1    5   16
   15   2   17    5   31    3
   16   1   30    2
   17   2   32    3   31    3
   18   2   17    7   24    2
   19   1    6   11
   20   2    6   11    4    9
   21   2    8   15   32    2
   22   2    6   18    7    9
   23   1    6   13
   24   2    7   17   15    6
   25   2   13    9   15    5
   26   1    5   14
   27   2   18    9   28    3
   28   2    4   11   16    2
   29   2   13    9   14    8
   30   1   12   10
   31   2    4   12   17    4
   32   1   30    4
   33   1   31    3
   34   2    7   14    6   14
   35   2   17   10   16    8
   36   2    6   12    4   10
   37   2    5   11   16    4
   38   2    5   12    6   10
   39   1   16    4
   40   2    5   15   16    5
   41   1    4    9
   42   2    5    8   18    7
   43   1   33    3
   44   1   12    6
   45   1   36    3
   46   2    6   16   27    3
   47   1    9    7
   48   1   34    2
   49   1   26    2
   50   2   17    6   34    4
   51   1   34    4
   52   1   22    3
   53   2    7   16    6    9
   54   1   11    7
   55   1    5    9
   56   2   22    4   11    4
   57   1   29    2
   58   1    7   18
   59   1   16    4
   60   1    4   16
   61   2    8    8   21    2
   62   1   10   10
   63   1    5   13
   64   2    6   16   36    4
   65   1    6   18
   66   1    6   13
   67   2    7   13   20    8
   68   2    6   16    8   11
   69   1   26    3
   70   2    7   12   18    8
   71   1   13    6
   72   2   16    7   34    3
   73   2   16   10   12    5
   74   1   27    4
   75   2    4   16   32    3
